
Gurobi 10.0.0 (win64) logging started Tue Jun  4 15:21:58 2024

Set parameter LogFile to value "C:\Users\ealvarezq\Documents\GitHub\Comillas\Models\JointResearch\05. Models\06.Benchmarking\B.Operation_cost\9n_mod1_ByStages_nc80/openStarNet_9n_mod1_ByStages_nc80.log"
Set parameter Method to value 2
Set parameter MIPFocus to value 1
Set parameter Presolve to value 2
Set parameter RINS to value 100
Set parameter MIPGap to value 0.01
Set parameter Threads to value 9
Set parameter TimeLimit to value 259200
Set parameter IterationLimit to value 760000000
Gurobi Optimizer version 10.0.0 build v10.0.0rc2 (win64)

CPU model: Intel(R) Core(TM) i7-8700 CPU @ 3.20GHz, instruction set [SSE2|AVX|AVX2]
Thread count: 6 physical cores, 12 logical processors, using up to 9 threads

Optimize a model with 20963 rows, 11155 columns and 63454 nonzeros
Model fingerprint: 0xad1f5f5f
Variable types: 11119 continuous, 36 integer (36 binary)
Coefficient statistics:
  Matrix range     [5e-04, 8e+02]
  Objective range  [1e+00, 1e+00]
  Bounds range     [9e-05, 2e+00]
  RHS range        [9e-05, 1e+00]
Presolve removed 7123 rows and 3764 columns
Presolve time: 0.08s
Presolved: 13840 rows, 7391 columns, 47355 nonzeros
Variable types: 7355 continuous, 36 integer (36 binary)
Found heuristic solution: objective 4597.9232886
Root relaxation presolved: 13840 rows, 7391 columns, 47355 nonzeros

Root barrier log...

Ordering time: 0.01s

Barrier statistics:
 Dense cols : 36
 AA' NZ     : 1.639e+05
 Factor NZ  : 3.242e+05 (roughly 11 MB of memory)
 Factor Ops : 1.080e+07 (less than 1 second per iteration)
 Threads    : 9

                  Objective                Residual
Iter       Primal          Dual         Primal    Dual     Compl     Time
   0   4.68742343e+05 -2.59631595e+07  7.16e+00 1.57e+02  3.69e+03     0s
   1   7.95841916e+04 -1.04547064e+07  1.00e+00 2.03e-09  5.67e+02     0s
   2   1.83313318e+04 -2.00552369e+06  3.34e-02 9.05e-09  7.64e+01     0s
   3   7.35984175e+03 -7.82477745e+04  5.94e-04 2.74e-10  3.14e+00     0s
   4   1.28902869e+03 -1.26396209e+04  3.02e-06 4.11e-11  5.11e-01     0s
   5   7.83515584e+02 -5.97566715e+03  9.14e-08 1.91e-11  2.48e-01     0s
   6   4.71743720e+02 -1.23161270e+03  5.99e-11 3.84e-12  6.25e-02     0s
   7   2.48141574e+02 -2.38019160e+02  1.94e-11 8.36e-13  1.78e-02     0s
   8   1.44828920e+02 -5.39169405e+01  6.51e-12 6.80e-13  7.29e-03     0s
   9   1.00547980e+02  2.36165337e+01  2.33e-12 8.87e-13  2.82e-03     0s
  10   8.79078000e+01  5.08621057e+01  1.23e-12 7.19e-13  1.36e-03     0s
  11   8.27784770e+01  6.18411220e+01  8.24e-13 6.19e-13  7.68e-04     0s
  12   8.18739756e+01  6.36713657e+01  1.79e-12 6.69e-13  6.68e-04     0s
  13   8.00866951e+01  6.74790843e+01  3.01e-12 6.80e-13  4.62e-04     0s
  14   7.82536713e+01  6.97358957e+01  9.03e-12 7.10e-13  3.12e-04     0s
  15   7.72894185e+01  7.07776458e+01  3.78e-12 5.69e-13  2.39e-04     0s
  16   7.63408261e+01  7.48921818e+01  3.21e-12 8.35e-13  5.31e-05     0s
  17   7.63015075e+01  7.51191878e+01  8.23e-12 8.37e-13  4.34e-05     0s
  18   7.62502836e+01  7.51919569e+01  1.78e-11 9.76e-13  3.88e-05     0s
  19   7.62373075e+01  7.54405462e+01  2.18e-11 8.40e-13  2.92e-05     0s
  20   7.59752866e+01  7.56368121e+01  9.15e-11 7.43e-13  1.24e-05     0s
  21   7.58900512e+01  7.58597400e+01  1.57e-09 8.76e-13  1.11e-06     0s
  22   7.58812469e+01  7.58811181e+01  4.49e-11 9.27e-13  4.72e-09     0s
  23   7.58811802e+01  7.58811801e+01  4.51e-11 7.90e-13  4.72e-12     0s

Barrier solved model in 23 iterations and 0.35 seconds (0.30 work units)
Optimal objective 7.58811802e+01


Root relaxation: objective 7.588118e+01, 889 iterations, 0.24 seconds (0.20 work units)

    Nodes    |    Current Node    |     Objective Bounds      |     Work
 Expl Unexpl |  Obj  Depth IntInf | Incumbent    BestBd   Gap | It/Node Time

     0     0   75.88118    0    3 4597.92329   75.88118  98.3%     -    0s
H    0     0                      79.4943406   75.88118  4.55%     -    0s
     0     0   78.35594    0    1   79.49434   78.35594  1.43%     -    0s
     0     0   78.35594    0    2   79.49434   78.35594  1.43%     -    0s
H    0     0                      79.1925751   78.35594  1.06%     -    0s

Cutting planes:
  MIR: 75

Explored 1 nodes (1483 simplex iterations) in 0.81 seconds (0.54 work units)
Thread count was 9 (of 12 available processors)

Solution count 3: 79.1926 79.4943 4597.92 

Optimal solution found (tolerance 1.00e-02)
Best objective 7.919257514400e+01, best bound 7.898937534469e+01, gap 0.2566%

Gurobi 10.0.0 (win64) logging started Tue Jun  4 15:22:03 2024

Set parameter LogFile to value "C:\Users\ealvarezq\Documents\GitHub\Comillas\Models\JointResearch\05. Models\06.Benchmarking\B.Operation_cost\9n_mod1_ByStages_nc80/openStarNet_9n_mod1_ByStages_nc80.log"
Set parameter Method to value 2
Set parameter MIPFocus to value 1
Set parameter Presolve to value 2
Set parameter RINS to value 100
Set parameter MIPGap to value 0.01
Set parameter Threads to value 9
Set parameter TimeLimit to value 259200
Set parameter IterationLimit to value 760000000
Gurobi Optimizer version 10.0.0 build v10.0.0rc2 (win64)

CPU model: Intel(R) Core(TM) i7-8700 CPU @ 3.20GHz, instruction set [SSE2|AVX|AVX2]
Thread count: 6 physical cores, 12 logical processors, using up to 9 threads

Optimize a model with 20963 rows, 11119 columns and 51898 nonzeros
Model fingerprint: 0x6ffd145f
Coefficient statistics:
  Matrix range     [5e-04, 8e+02]
  Objective range  [1e+00, 1e+00]
  Bounds range     [9e-05, 2e+00]
  RHS range        [9e-05, 2e+01]
Presolve removed 19103 rows and 7365 columns
Presolve time: 0.02s
Presolved: 1860 rows, 3834 columns, 8275 nonzeros

Ordering time: 0.00s

Barrier statistics:
 AA' NZ     : 4.100e+03
 Factor NZ  : 1.840e+04 (roughly 2 MB of memory)
 Factor Ops : 2.397e+05 (less than 1 second per iteration)
 Threads    : 1

                  Objective                Residual
Iter       Primal          Dual         Primal    Dual     Compl     Time
   0   5.01977969e+05 -1.57807305e+07  6.09e+00 5.36e+02  9.00e+03     0s
   1   8.52291236e+04 -8.02167476e+06  8.66e-01 3.01e+02  1.64e+03     0s
   2   2.91523108e+04 -2.07331436e+06  1.36e-01 9.05e-02  2.96e+02     0s
   3   1.37536367e+04 -1.35940293e+05  6.56e-03 7.73e-12  1.76e+01     0s
   4   3.70936228e+03 -1.01170675e+04  2.46e-04 4.09e-12  1.59e+00     0s
   5   9.34521219e+02 -2.69792101e+03  1.25e-05 2.63e-12  4.16e-01     0s
   6   4.79432379e+02 -8.30030654e+02  1.74e-06 1.64e-12  1.50e-01     0s
   7   2.37718634e+02 -1.23216284e+02  2.95e-07 5.31e-12  4.14e-02     0s
   8   1.56031366e+02  3.42585150e+00  1.40e-07 1.08e-12  1.75e-02     0s
   9   1.08830763e+02  5.66155152e+01  4.94e-08 1.57e-12  5.98e-03     0s
  10   8.37176508e+01  7.55283358e+01  5.72e-09 3.12e-12  9.38e-04     0s
  11   7.98757463e+01  7.83569114e+01  7.24e-10 1.82e-12  1.74e-04     0s
  12   7.92974918e+01  7.88630992e+01  9.24e-11 1.12e-12  4.98e-05     0s
  13   7.91988566e+01  7.91457075e+01  3.53e-12 1.28e-12  6.09e-06     0s
  14   7.91926172e+01  7.91925132e+01  2.15e-14 3.71e-12  1.19e-08     0s
  15   7.91925752e+01  7.91925751e+01  1.34e-13 2.65e-12  1.19e-11     0s

Barrier solved model in 15 iterations and 0.04 seconds (0.04 work units)
Optimal objective 7.91925752e+01

Crossover log...

     888 DPushes remaining with DInf 0.0000000e+00                 0s
       0 DPushes remaining with DInf 0.0000000e+00                 0s

      30 PPushes remaining with PInf 0.0000000e+00                 0s
       0 PPushes remaining with PInf 0.0000000e+00                 0s

  Push phase complete: Pinf 0.0000000e+00, Dinf 1.3018059e-13      0s

Iteration    Objective       Primal Inf.    Dual Inf.      Time
      72    7.9192575e+01   0.000000e+00   0.000000e+00      0s

Solved in 72 iterations and 0.05 seconds (0.05 work units)
Optimal objective  7.919257514e+01

Gurobi 11.0.0 (linux64) logging started Tue Aug  6 22:47:36 2024

Set parameter LogFile to value "/lustre1/scratch/348/vsc34888/JointResearch/05.Models/06.Benchmarking/B.Operation_cost/9n_mod1_ByStages_nc80/openStarNet_9n_mod1_ByStages_nc80.log"
Set parameter Method to value 2
Set parameter MIPFocus to value 1
Set parameter Presolve to value 2
Set parameter RINS to value 100
Set parameter MIPGap to value 0.01
Set parameter Threads to value 36
Set parameter TimeLimit to value 259200
Set parameter IterationLimit to value 760000000
Gurobi Optimizer version 11.0.0 build v11.0.0rc2 (linux64 - "Rocky Linux 8.9 (Green Obsidian)")

CPU model: Intel(R) Xeon(R) Gold 6240 CPU @ 2.60GHz, instruction set [SSE2|AVX|AVX2|AVX512]
Thread count: 36 physical cores, 36 logical processors, using up to 36 threads

Optimize a model with 20963 rows, 11119 columns and 51898 nonzeros
Model fingerprint: 0xc1b05933
Coefficient statistics:
  Matrix range     [5e-04, 8e+02]
  Objective range  [1e+00, 1e+00]
  Bounds range     [9e-05, 2e+00]
  RHS range        [9e-05, 1e+00]
Presolve removed 19043 rows and 7293 columns
Presolve time: 0.02s
Presolved: 1920 rows, 3906 columns, 8625 nonzeros

Ordering time: 0.00s

Barrier statistics:
 AA' NZ     : 4.795e+03
 Factor NZ  : 2.013e+04 (roughly 3 MB of memory)
 Factor Ops : 2.763e+05 (less than 1 second per iteration)
 Threads    : 1

                  Objective                Residual
Iter       Primal          Dual         Primal    Dual     Compl     Time
   0   4.44403862e+05 -1.62563309e+07  4.93e+00 1.63e+02  8.27e+03     0s
   1   8.51700731e+04 -7.36585111e+06  7.44e-01 8.51e-12  1.48e+03     0s
   2   2.53348285e+04 -2.15974327e+06  3.93e-02 9.94e-12  2.65e+02     0s
   3   1.68978570e+04 -7.74502199e+04  9.60e-04 1.33e-11  1.07e+01     0s
   4   6.51727461e+03 -2.41990719e+03  2.47e-05 2.46e-11  1.01e+00     0s
   5   5.22925474e+03  1.24972684e+03  1.68e-06 1.20e-11  4.49e-01     0s
   6   4.92709169e+03  3.58451335e+03  1.79e-07 3.75e-12  1.52e-01     0s
   7   4.71137866e+03  4.34840037e+03  1.13e-08 1.82e-12  4.10e-02     0s
   8   4.64252296e+03  4.50461979e+03  3.38e-09 1.82e-12  1.56e-02     0s
   9   4.60646878e+03  4.58297539e+03  4.32e-10 1.82e-12  2.65e-03     0s
  10   4.59912919e+03  4.59430230e+03  4.85e-11 1.82e-12  5.45e-04     0s
  11   4.59820053e+03  4.59734593e+03  8.09e-12 3.64e-12  9.65e-05     0s
  12   4.59799954e+03  4.59781115e+03  2.04e-12 1.82e-12  2.13e-05     0s
  13   4.59793909e+03  4.59791816e+03  4.12e-13 1.82e-12  2.36e-06     0s
  14   4.59792523e+03  4.59792322e+03  2.61e-13 1.82e-12  2.26e-07     0s
  15   4.59792330e+03  4.59792328e+03  2.58e-11 9.09e-13  1.89e-09     0s

Barrier solved model in 15 iterations and 0.04 seconds (0.04 work units)
Optimal objective 4.59792330e+03

Crossover log...

     873 DPushes remaining with DInf 0.0000000e+00                 0s
       0 DPushes remaining with DInf 0.0000000e+00                 0s

      32 PPushes remaining with PInf 0.0000000e+00                 0s
       0 PPushes remaining with PInf 0.0000000e+00                 0s

  Push phase complete: Pinf 0.0000000e+00, Dinf 2.0295918e-13      0s

Iteration    Objective       Primal Inf.    Dual Inf.      Time
     116    4.5979233e+03   0.000000e+00   0.000000e+00      0s

Solved in 116 iterations and 0.06 seconds (0.05 work units)
Optimal objective  4.597923289e+03

Gurobi 11.0.0 (linux64) logging started Tue Aug  6 22:47:39 2024

Set parameter LogFile to value "/lustre1/scratch/348/vsc34888/JointResearch/05.Models/06.Benchmarking/B.Operation_cost/9n_mod1_ByStages_nc80/openStarNet_9n_mod1_ByStages_nc80.log"
Set parameter Method to value 2
Set parameter MIPFocus to value 1
Set parameter Presolve to value 2
Set parameter RINS to value 100
Set parameter MIPGap to value 0.01
Set parameter Threads to value 36
Set parameter TimeLimit to value 259200
Set parameter IterationLimit to value 760000000
Gurobi Optimizer version 11.0.0 build v11.0.0rc2 (linux64 - "Rocky Linux 8.9 (Green Obsidian)")

CPU model: Intel(R) Xeon(R) Gold 6240 CPU @ 2.60GHz, instruction set [SSE2|AVX|AVX2|AVX512]
Thread count: 36 physical cores, 36 logical processors, using up to 36 threads

Optimize a model with 20963 rows, 11119 columns and 51898 nonzeros
Model fingerprint: 0xc1b05933
Coefficient statistics:
  Matrix range     [5e-04, 8e+02]
  Objective range  [1e+00, 1e+00]
  Bounds range     [9e-05, 2e+00]
  RHS range        [9e-05, 1e+00]
Presolve removed 19043 rows and 7293 columns
Presolve time: 0.02s
Presolved: 1920 rows, 3906 columns, 8625 nonzeros

Ordering time: 0.00s

Barrier statistics:
 AA' NZ     : 4.795e+03
 Factor NZ  : 2.013e+04 (roughly 3 MB of memory)
 Factor Ops : 2.763e+05 (less than 1 second per iteration)
 Threads    : 1

                  Objective                Residual
Iter       Primal          Dual         Primal    Dual     Compl     Time
   0   4.44403862e+05 -1.62563309e+07  4.93e+00 1.63e+02  8.27e+03     0s
   1   8.51700731e+04 -7.36585111e+06  7.44e-01 8.51e-12  1.48e+03     0s
   2   2.53348285e+04 -2.15974327e+06  3.93e-02 9.94e-12  2.65e+02     0s
   3   1.68978570e+04 -7.74502199e+04  9.60e-04 1.33e-11  1.07e+01     0s
   4   6.51727461e+03 -2.41990719e+03  2.47e-05 2.46e-11  1.01e+00     0s
   5   5.22925474e+03  1.24972684e+03  1.68e-06 1.20e-11  4.49e-01     0s
   6   4.92709169e+03  3.58451335e+03  1.79e-07 3.75e-12  1.52e-01     0s
   7   4.71137866e+03  4.34840037e+03  1.13e-08 1.82e-12  4.10e-02     0s
   8   4.64252296e+03  4.50461979e+03  3.38e-09 1.82e-12  1.56e-02     0s
   9   4.60646878e+03  4.58297539e+03  4.32e-10 1.82e-12  2.65e-03     0s
  10   4.59912919e+03  4.59430230e+03  4.85e-11 1.82e-12  5.45e-04     0s
  11   4.59820053e+03  4.59734593e+03  8.09e-12 3.64e-12  9.65e-05     0s
  12   4.59799954e+03  4.59781115e+03  2.04e-12 1.82e-12  2.13e-05     0s
  13   4.59793909e+03  4.59791816e+03  4.12e-13 1.82e-12  2.36e-06     0s
  14   4.59792523e+03  4.59792322e+03  2.61e-13 1.82e-12  2.26e-07     0s
  15   4.59792330e+03  4.59792328e+03  2.58e-11 9.09e-13  1.89e-09     0s

Barrier solved model in 15 iterations and 0.04 seconds (0.04 work units)
Optimal objective 4.59792330e+03

Crossover log...

     873 DPushes remaining with DInf 0.0000000e+00                 0s
       0 DPushes remaining with DInf 0.0000000e+00                 0s

      32 PPushes remaining with PInf 0.0000000e+00                 0s
       0 PPushes remaining with PInf 0.0000000e+00                 0s

  Push phase complete: Pinf 0.0000000e+00, Dinf 2.0295918e-13      0s

Iteration    Objective       Primal Inf.    Dual Inf.      Time
     116    4.5979233e+03   0.000000e+00   0.000000e+00      0s

Solved in 116 iterations and 0.06 seconds (0.05 work units)
Optimal objective  4.597923289e+03
